\* Schedule_Tasks *\
Maximize
OBJ: 4 Block_(0,_11) + 4 Block_(0,_12) + 4 Block_(0,_13) + 4 Block_(0,_18)
 + 4 Block_(0,_19) + 4 Block_(0,_20) + 4 Block_(0,_25) + 4 Block_(0,_26)
 + 4 Block_(0,_27) + 4 Block_(0,_28) + 4 Block_(0,_29) + 4 Block_(0,_6)
 + 4 Block_(0,_7) + 4 Block_(0,_8) + 5 Block_(1,_11) + 5 Block_(1,_12)
 + 5 Block_(1,_13) + 5 Block_(1,_18) + 5 Block_(1,_19) + 5 Block_(1,_20)
 + 5 Block_(1,_25) + 5 Block_(1,_26) + 5 Block_(1,_27) + 5 Block_(1,_28)
 + 5 Block_(1,_29) + 5 Block_(1,_6) + 5 Block_(1,_7) + 5 Block_(1,_8)
 + Block_(2,_11) + Block_(2,_12) + Block_(2,_13) + Block_(2,_18)
 + Block_(2,_19) + Block_(2,_20) + Block_(2,_25) + Block_(2,_26)
 + Block_(2,_27) + Block_(2,_28) + Block_(2,_29) + Block_(2,_6) + Block_(2,_7)
 + Block_(2,_8) + 3 Block_(3,_11) + 3 Block_(3,_12) + 3 Block_(3,_13)
 + 3 Block_(3,_18) + 3 Block_(3,_19) + 3 Block_(3,_20) + 3 Block_(3,_25)
 + 3 Block_(3,_26) + 3 Block_(3,_27) + 3 Block_(3,_28) + 3 Block_(3,_29)
 + 3 Block_(3,_6) + 3 Block_(3,_7) + 3 Block_(3,_8) + 3 Block_(4,_11)
 + 3 Block_(4,_12) + 3 Block_(4,_13) + 3 Block_(4,_18) + 3 Block_(4,_19)
 + 3 Block_(4,_20) + 3 Block_(4,_25) + 3 Block_(4,_26) + 3 Block_(4,_27)
 + 3 Block_(4,_28) + 3 Block_(4,_29) + 3 Block_(4,_6) + 3 Block_(4,_7)
 + 3 Block_(4,_8) + 2 Block_(5,_11) + 2 Block_(5,_12) + 2 Block_(5,_13)
 + 2 Block_(5,_18) + 2 Block_(5,_19) + 2 Block_(5,_20) + 2 Block_(5,_25)
 + 2 Block_(5,_26) + 2 Block_(5,_27) + 2 Block_(5,_28) + 2 Block_(5,_29)
 + 2 Block_(5,_6) + 2 Block_(5,_7) + 2 Block_(5,_8) + 2 Block_(6,_11)
 + 2 Block_(6,_12) + 2 Block_(6,_13) + 2 Block_(6,_18) + 2 Block_(6,_19)
 + 2 Block_(6,_20) + 2 Block_(6,_25) + 2 Block_(6,_26) + 2 Block_(6,_27)
 + 2 Block_(6,_28) + 2 Block_(6,_29) + 2 Block_(6,_6) + 2 Block_(6,_7)
 + 2 Block_(6,_8) + Block_(7,_11) + Block_(7,_12) + Block_(7,_13)
 + Block_(7,_18) + Block_(7,_19) + Block_(7,_20) + Block_(7,_25)
 + Block_(7,_26) + Block_(7,_27) + Block_(7,_28) + Block_(7,_29)
 + Block_(7,_6) + Block_(7,_7) + Block_(7,_8) + 2 Block_(8,_11)
 + 2 Block_(8,_12) + 2 Block_(8,_13) + 2 Block_(8,_18) + 2 Block_(8,_19)
 + 2 Block_(8,_20) + 2 Block_(8,_25) + 2 Block_(8,_26) + 2 Block_(8,_27)
 + 2 Block_(8,_28) + 2 Block_(8,_29) + 2 Block_(8,_6) + 2 Block_(8,_7)
 + 2 Block_(8,_8)
Subject To
_C1: Block_(0,_0) + Block_(0,_1) + Block_(0,_10) + Block_(0,_11)
 + Block_(0,_12) + Block_(0,_13) + Block_(0,_14) + Block_(0,_15)
 + Block_(0,_16) + Block_(0,_17) + Block_(0,_18) + Block_(0,_19)
 + Block_(0,_2) + Block_(0,_20) + Block_(0,_21) + Block_(0,_22)
 + Block_(0,_23) + Block_(0,_24) + Block_(0,_25) + Block_(0,_26)
 + Block_(0,_27) + Block_(0,_28) + Block_(0,_29) + Block_(0,_3) + Block_(0,_4)
 + Block_(0,_5) + Block_(0,_6) + Block_(0,_7) + Block_(0,_8) + Block_(0,_9)
 + Block_(1,_0) + Block_(1,_1) + Block_(1,_10) + Block_(1,_11) + Block_(1,_12)
 + Block_(1,_13) + Block_(1,_14) + Block_(1,_15) + Block_(1,_16)
 + Block_(1,_17) + Block_(1,_18) + Block_(1,_19) + Block_(1,_2)
 + Block_(1,_20) + Block_(1,_21) + Block_(1,_22) + Block_(1,_23)
 + Block_(1,_24) + Block_(1,_25) + Block_(1,_26) + Block_(1,_27)
 + Block_(1,_28) + Block_(1,_29) + Block_(1,_3) + Block_(1,_4) + Block_(1,_5)
 + Block_(1,_6) + Block_(1,_7) + Block_(1,_8) + Block_(1,_9) + Block_(2,_0)
 + Block_(2,_1) + Block_(2,_10) + Block_(2,_11) + Block_(2,_12)
 + Block_(2,_13) + Block_(2,_14) + Block_(2,_15) + Block_(2,_16)
 + Block_(2,_17) + Block_(2,_18) + Block_(2,_19) + Block_(2,_2)
 + Block_(2,_20) + Block_(2,_21) + Block_(2,_22) + Block_(2,_23)
 + Block_(2,_24) + Block_(2,_25) + Block_(2,_26) + Block_(2,_27)
 + Block_(2,_28) + Block_(2,_29) + Block_(2,_3) + Block_(2,_4) + Block_(2,_5)
 + Block_(2,_6) + Block_(2,_7) + Block_(2,_8) + Block_(2,_9) + Block_(3,_0)
 + Block_(3,_1) + Block_(3,_10) + Block_(3,_11) + Block_(3,_12)
 + Block_(3,_13) + Block_(3,_14) + Block_(3,_15) + Block_(3,_16)
 + Block_(3,_17) + Block_(3,_18) + Block_(3,_19) + Block_(3,_2)
 + Block_(3,_20) + Block_(3,_21) + Block_(3,_22) + Block_(3,_23)
 + Block_(3,_24) + Block_(3,_25) + Block_(3,_26) + Block_(3,_27)
 + Block_(3,_28) + Block_(3,_29) + Block_(3,_3) + Block_(3,_4) + Block_(3,_5)
 + Block_(3,_6) + Block_(3,_7) + Block_(3,_8) + Block_(3,_9) + Block_(4,_0)
 + Block_(4,_1) + Block_(4,_10) + Block_(4,_11) + Block_(4,_12)
 + Block_(4,_13) + Block_(4,_14) + Block_(4,_15) + Block_(4,_16)
 + Block_(4,_17) + Block_(4,_18) + Block_(4,_19) + Block_(4,_2)
 + Block_(4,_20) + Block_(4,_21) + Block_(4,_22) + Block_(4,_23)
 + Block_(4,_24) + Block_(4,_25) + Block_(4,_26) + Block_(4,_27)
 + Block_(4,_28) + Block_(4,_29) + Block_(4,_3) + Block_(4,_4) + Block_(4,_5)
 + Block_(4,_6) + Block_(4,_7) + Block_(4,_8) + Block_(4,_9) + Block_(5,_0)
 + Block_(5,_1) + Block_(5,_10) + Block_(5,_11) + Block_(5,_12)
 + Block_(5,_13) + Block_(5,_14) + Block_(5,_15) + Block_(5,_16)
 + Block_(5,_17) + Block_(5,_18) + Block_(5,_19) + Block_(5,_2)
 + Block_(5,_20) + Block_(5,_21) + Block_(5,_22) + Block_(5,_23)
 + Block_(5,_24) + Block_(5,_25) + Block_(5,_26) + Block_(5,_27)
 + Block_(5,_28) + Block_(5,_29) + Block_(5,_3) + Block_(5,_4) + Block_(5,_5)
 + Block_(5,_6) + Block_(5,_7) + Block_(5,_8) + Block_(5,_9) + Block_(6,_0)
 + Block_(6,_1) + Block_(6,_10) + Block_(6,_11) + Block_(6,_12)
 + Block_(6,_13) + Block_(6,_14) + Block_(6,_15) + Block_(6,_16)
 + Block_(6,_17) + Block_(6,_18) + Block_(6,_19) + Block_(6,_2)
 + Block_(6,_20) + Block_(6,_21) + Block_(6,_22) + Block_(6,_23)
 + Block_(6,_24) + Block_(6,_25) + Block_(6,_26) + Block_(6,_27)
 + Block_(6,_28) + Block_(6,_29) + Block_(6,_3) + Block_(6,_4) + Block_(6,_5)
 + Block_(6,_6) + Block_(6,_7) + Block_(6,_8) + Block_(6,_9) + Block_(7,_0)
 + Block_(7,_1) + Block_(7,_10) + Block_(7,_11) + Block_(7,_12)
 + Block_(7,_13) + Block_(7,_14) + Block_(7,_15) + Block_(7,_16)
 + Block_(7,_17) + Block_(7,_18) + Block_(7,_19) + Block_(7,_2)
 + Block_(7,_20) + Block_(7,_21) + Block_(7,_22) + Block_(7,_23)
 + Block_(7,_24) + Block_(7,_25) + Block_(7,_26) + Block_(7,_27)
 + Block_(7,_28) + Block_(7,_29) + Block_(7,_3) + Block_(7,_4) + Block_(7,_5)
 + Block_(7,_6) + Block_(7,_7) + Block_(7,_8) + Block_(7,_9) + Block_(8,_0)
 + Block_(8,_1) + Block_(8,_10) + Block_(8,_11) + Block_(8,_12)
 + Block_(8,_13) + Block_(8,_14) + Block_(8,_15) + Block_(8,_16)
 + Block_(8,_17) + Block_(8,_18) + Block_(8,_19) + Block_(8,_2)
 + Block_(8,_20) + Block_(8,_21) + Block_(8,_22) + Block_(8,_23)
 + Block_(8,_24) + Block_(8,_25) + Block_(8,_26) + Block_(8,_27)
 + Block_(8,_28) + Block_(8,_29) + Block_(8,_3) + Block_(8,_4) + Block_(8,_5)
 + Block_(8,_6) + Block_(8,_7) + Block_(8,_8) + Block_(8,_9) <= 14
_C10: Block_(8,_0) + Block_(8,_1) + Block_(8,_10) + Block_(8,_11)
 + Block_(8,_12) + Block_(8,_13) + Block_(8,_14) + Block_(8,_15)
 + Block_(8,_16) + Block_(8,_17) + Block_(8,_18) + Block_(8,_19)
 + Block_(8,_2) + Block_(8,_20) + Block_(8,_21) + Block_(8,_22)
 + Block_(8,_23) + Block_(8,_24) + Block_(8,_25) + Block_(8,_26)
 + Block_(8,_27) + Block_(8,_28) + Block_(8,_29) + Block_(8,_3) + Block_(8,_4)
 + Block_(8,_5) + Block_(8,_6) + Block_(8,_7) + Block_(8,_8) + Block_(8,_9)
 <= 1
_C11: Block_(0,_0) + Block_(1,_0) + Block_(2,_0) + Block_(3,_0) + Block_(4,_0)
 + Block_(5,_0) + Block_(6,_0) + Block_(7,_0) + Block_(8,_0) <= 1
_C12: Block_(0,_1) + Block_(1,_1) + Block_(2,_1) + Block_(3,_1) + Block_(4,_1)
 + Block_(5,_1) + Block_(6,_1) + Block_(7,_1) + Block_(8,_1) <= 1
_C13: Block_(0,_2) + Block_(1,_2) + Block_(2,_2) + Block_(3,_2) + Block_(4,_2)
 + Block_(5,_2) + Block_(6,_2) + Block_(7,_2) + Block_(8,_2) <= 1
_C14: Block_(0,_3) + Block_(1,_3) + Block_(2,_3) + Block_(3,_3) + Block_(4,_3)
 + Block_(5,_3) + Block_(6,_3) + Block_(7,_3) + Block_(8,_3) <= 1
_C15: Block_(0,_4) + Block_(1,_4) + Block_(2,_4) + Block_(3,_4) + Block_(4,_4)
 + Block_(5,_4) + Block_(6,_4) + Block_(7,_4) + Block_(8,_4) <= 1
_C16: Block_(0,_5) + Block_(1,_5) + Block_(2,_5) + Block_(3,_5) + Block_(4,_5)
 + Block_(5,_5) + Block_(6,_5) + Block_(7,_5) + Block_(8,_5) <= 1
_C17: Block_(0,_6) + Block_(1,_6) + Block_(2,_6) + Block_(3,_6) + Block_(4,_6)
 + Block_(5,_6) + Block_(6,_6) + Block_(7,_6) + Block_(8,_6) <= 1
_C18: Block_(0,_7) + Block_(1,_7) + Block_(2,_7) + Block_(3,_7) + Block_(4,_7)
 + Block_(5,_7) + Block_(6,_7) + Block_(7,_7) + Block_(8,_7) <= 1
_C19: Block_(0,_8) + Block_(1,_8) + Block_(2,_8) + Block_(3,_8) + Block_(4,_8)
 + Block_(5,_8) + Block_(6,_8) + Block_(7,_8) + Block_(8,_8) <= 1
_C2: Block_(0,_0) + Block_(0,_1) + Block_(0,_10) + Block_(0,_11)
 + Block_(0,_12) + Block_(0,_13) + Block_(0,_14) + Block_(0,_15)
 + Block_(0,_16) + Block_(0,_17) + Block_(0,_18) + Block_(0,_19)
 + Block_(0,_2) + Block_(0,_20) + Block_(0,_21) + Block_(0,_22)
 + Block_(0,_23) + Block_(0,_24) + Block_(0,_25) + Block_(0,_26)
 + Block_(0,_27) + Block_(0,_28) + Block_(0,_29) + Block_(0,_3) + Block_(0,_4)
 + Block_(0,_5) + Block_(0,_6) + Block_(0,_7) + Block_(0,_8) + Block_(0,_9)
 <= 2
_C20: Block_(0,_9) + Block_(1,_9) + Block_(2,_9) + Block_(3,_9) + Block_(4,_9)
 + Block_(5,_9) + Block_(6,_9) + Block_(7,_9) + Block_(8,_9) <= 1
_C21: Block_(0,_10) + Block_(1,_10) + Block_(2,_10) + Block_(3,_10)
 + Block_(4,_10) + Block_(5,_10) + Block_(6,_10) + Block_(7,_10)
 + Block_(8,_10) <= 1
_C22: Block_(0,_11) + Block_(1,_11) + Block_(2,_11) + Block_(3,_11)
 + Block_(4,_11) + Block_(5,_11) + Block_(6,_11) + Block_(7,_11)
 + Block_(8,_11) <= 1
_C23: Block_(0,_12) + Block_(1,_12) + Block_(2,_12) + Block_(3,_12)
 + Block_(4,_12) + Block_(5,_12) + Block_(6,_12) + Block_(7,_12)
 + Block_(8,_12) <= 1
_C24: Block_(0,_13) + Block_(1,_13) + Block_(2,_13) + Block_(3,_13)
 + Block_(4,_13) + Block_(5,_13) + Block_(6,_13) + Block_(7,_13)
 + Block_(8,_13) <= 1
_C25: Block_(0,_14) + Block_(1,_14) + Block_(2,_14) + Block_(3,_14)
 + Block_(4,_14) + Block_(5,_14) + Block_(6,_14) + Block_(7,_14)
 + Block_(8,_14) <= 1
_C26: Block_(0,_15) + Block_(1,_15) + Block_(2,_15) + Block_(3,_15)
 + Block_(4,_15) + Block_(5,_15) + Block_(6,_15) + Block_(7,_15)
 + Block_(8,_15) <= 1
_C27: Block_(0,_16) + Block_(1,_16) + Block_(2,_16) + Block_(3,_16)
 + Block_(4,_16) + Block_(5,_16) + Block_(6,_16) + Block_(7,_16)
 + Block_(8,_16) <= 1
_C28: Block_(0,_17) + Block_(1,_17) + Block_(2,_17) + Block_(3,_17)
 + Block_(4,_17) + Block_(5,_17) + Block_(6,_17) + Block_(7,_17)
 + Block_(8,_17) <= 1
_C29: Block_(0,_18) + Block_(1,_18) + Block_(2,_18) + Block_(3,_18)
 + Block_(4,_18) + Block_(5,_18) + Block_(6,_18) + Block_(7,_18)
 + Block_(8,_18) <= 1
_C3: Block_(1,_0) + Block_(1,_1) + Block_(1,_10) + Block_(1,_11)
 + Block_(1,_12) + Block_(1,_13) + Block_(1,_14) + Block_(1,_15)
 + Block_(1,_16) + Block_(1,_17) + Block_(1,_18) + Block_(1,_19)
 + Block_(1,_2) + Block_(1,_20) + Block_(1,_21) + Block_(1,_22)
 + Block_(1,_23) + Block_(1,_24) + Block_(1,_25) + Block_(1,_26)
 + Block_(1,_27) + Block_(1,_28) + Block_(1,_29) + Block_(1,_3) + Block_(1,_4)
 + Block_(1,_5) + Block_(1,_6) + Block_(1,_7) + Block_(1,_8) + Block_(1,_9)
 <= 4
_C30: Block_(0,_19) + Block_(1,_19) + Block_(2,_19) + Block_(3,_19)
 + Block_(4,_19) + Block_(5,_19) + Block_(6,_19) + Block_(7,_19)
 + Block_(8,_19) <= 1
_C31: Block_(0,_20) + Block_(1,_20) + Block_(2,_20) + Block_(3,_20)
 + Block_(4,_20) + Block_(5,_20) + Block_(6,_20) + Block_(7,_20)
 + Block_(8,_20) <= 1
_C32: Block_(0,_21) + Block_(1,_21) + Block_(2,_21) + Block_(3,_21)
 + Block_(4,_21) + Block_(5,_21) + Block_(6,_21) + Block_(7,_21)
 + Block_(8,_21) <= 1
_C33: Block_(0,_22) + Block_(1,_22) + Block_(2,_22) + Block_(3,_22)
 + Block_(4,_22) + Block_(5,_22) + Block_(6,_22) + Block_(7,_22)
 + Block_(8,_22) <= 1
_C34: Block_(0,_23) + Block_(1,_23) + Block_(2,_23) + Block_(3,_23)
 + Block_(4,_23) + Block_(5,_23) + Block_(6,_23) + Block_(7,_23)
 + Block_(8,_23) <= 1
_C35: Block_(0,_24) + Block_(1,_24) + Block_(2,_24) + Block_(3,_24)
 + Block_(4,_24) + Block_(5,_24) + Block_(6,_24) + Block_(7,_24)
 + Block_(8,_24) <= 1
_C36: Block_(0,_25) + Block_(1,_25) + Block_(2,_25) + Block_(3,_25)
 + Block_(4,_25) + Block_(5,_25) + Block_(6,_25) + Block_(7,_25)
 + Block_(8,_25) <= 1
_C37: Block_(0,_26) + Block_(1,_26) + Block_(2,_26) + Block_(3,_26)
 + Block_(4,_26) + Block_(5,_26) + Block_(6,_26) + Block_(7,_26)
 + Block_(8,_26) <= 1
_C38: Block_(0,_27) + Block_(1,_27) + Block_(2,_27) + Block_(3,_27)
 + Block_(4,_27) + Block_(5,_27) + Block_(6,_27) + Block_(7,_27)
 + Block_(8,_27) <= 1
_C39: Block_(0,_28) + Block_(1,_28) + Block_(2,_28) + Block_(3,_28)
 + Block_(4,_28) + Block_(5,_28) + Block_(6,_28) + Block_(7,_28)
 + Block_(8,_28) <= 1
_C4: Block_(2,_0) + Block_(2,_1) + Block_(2,_10) + Block_(2,_11)
 + Block_(2,_12) + Block_(2,_13) + Block_(2,_14) + Block_(2,_15)
 + Block_(2,_16) + Block_(2,_17) + Block_(2,_18) + Block_(2,_19)
 + Block_(2,_2) + Block_(2,_20) + Block_(2,_21) + Block_(2,_22)
 + Block_(2,_23) + Block_(2,_24) + Block_(2,_25) + Block_(2,_26)
 + Block_(2,_27) + Block_(2,_28) + Block_(2,_29) + Block_(2,_3) + Block_(2,_4)
 + Block_(2,_5) + Block_(2,_6) + Block_(2,_7) + Block_(2,_8) + Block_(2,_9)
 <= 2
_C40: Block_(0,_29) + Block_(1,_29) + Block_(2,_29) + Block_(3,_29)
 + Block_(4,_29) + Block_(5,_29) + Block_(6,_29) + Block_(7,_29)
 + Block_(8,_29) <= 1
_C5: Block_(3,_0) + Block_(3,_1) + Block_(3,_10) + Block_(3,_11)
 + Block_(3,_12) + Block_(3,_13) + Block_(3,_14) + Block_(3,_15)
 + Block_(3,_16) + Block_(3,_17) + Block_(3,_18) + Block_(3,_19)
 + Block_(3,_2) + Block_(3,_20) + Block_(3,_21) + Block_(3,_22)
 + Block_(3,_23) + Block_(3,_24) + Block_(3,_25) + Block_(3,_26)
 + Block_(3,_27) + Block_(3,_28) + Block_(3,_29) + Block_(3,_3) + Block_(3,_4)
 + Block_(3,_5) + Block_(3,_6) + Block_(3,_7) + Block_(3,_8) + Block_(3,_9)
 <= 1
_C6: Block_(4,_0) + Block_(4,_1) + Block_(4,_10) + Block_(4,_11)
 + Block_(4,_12) + Block_(4,_13) + Block_(4,_14) + Block_(4,_15)
 + Block_(4,_16) + Block_(4,_17) + Block_(4,_18) + Block_(4,_19)
 + Block_(4,_2) + Block_(4,_20) + Block_(4,_21) + Block_(4,_22)
 + Block_(4,_23) + Block_(4,_24) + Block_(4,_25) + Block_(4,_26)
 + Block_(4,_27) + Block_(4,_28) + Block_(4,_29) + Block_(4,_3) + Block_(4,_4)
 + Block_(4,_5) + Block_(4,_6) + Block_(4,_7) + Block_(4,_8) + Block_(4,_9)
 <= 5
_C7: Block_(5,_0) + Block_(5,_1) + Block_(5,_10) + Block_(5,_11)
 + Block_(5,_12) + Block_(5,_13) + Block_(5,_14) + Block_(5,_15)
 + Block_(5,_16) + Block_(5,_17) + Block_(5,_18) + Block_(5,_19)
 + Block_(5,_2) + Block_(5,_20) + Block_(5,_21) + Block_(5,_22)
 + Block_(5,_23) + Block_(5,_24) + Block_(5,_25) + Block_(5,_26)
 + Block_(5,_27) + Block_(5,_28) + Block_(5,_29) + Block_(5,_3) + Block_(5,_4)
 + Block_(5,_5) + Block_(5,_6) + Block_(5,_7) + Block_(5,_8) + Block_(5,_9)
 <= 1
_C8: Block_(6,_0) + Block_(6,_1) + Block_(6,_10) + Block_(6,_11)
 + Block_(6,_12) + Block_(6,_13) + Block_(6,_14) + Block_(6,_15)
 + Block_(6,_16) + Block_(6,_17) + Block_(6,_18) + Block_(6,_19)
 + Block_(6,_2) + Block_(6,_20) + Block_(6,_21) + Block_(6,_22)
 + Block_(6,_23) + Block_(6,_24) + Block_(6,_25) + Block_(6,_26)
 + Block_(6,_27) + Block_(6,_28) + Block_(6,_29) + Block_(6,_3) + Block_(6,_4)
 + Block_(6,_5) + Block_(6,_6) + Block_(6,_7) + Block_(6,_8) + Block_(6,_9)
 <= 4
_C9: Block_(7,_0) + Block_(7,_1) + Block_(7,_10) + Block_(7,_11)
 + Block_(7,_12) + Block_(7,_13) + Block_(7,_14) + Block_(7,_15)
 + Block_(7,_16) + Block_(7,_17) + Block_(7,_18) + Block_(7,_19)
 + Block_(7,_2) + Block_(7,_20) + Block_(7,_21) + Block_(7,_22)
 + Block_(7,_23) + Block_(7,_24) + Block_(7,_25) + Block_(7,_26)
 + Block_(7,_27) + Block_(7,_28) + Block_(7,_29) + Block_(7,_3) + Block_(7,_4)
 + Block_(7,_5) + Block_(7,_6) + Block_(7,_7) + Block_(7,_8) + Block_(7,_9)
 <= 3
Binaries
Block_(0,_0)
Block_(0,_1)
Block_(0,_10)
Block_(0,_11)
Block_(0,_12)
Block_(0,_13)
Block_(0,_14)
Block_(0,_15)
Block_(0,_16)
Block_(0,_17)
Block_(0,_18)
Block_(0,_19)
Block_(0,_2)
Block_(0,_20)
Block_(0,_21)
Block_(0,_22)
Block_(0,_23)
Block_(0,_24)
Block_(0,_25)
Block_(0,_26)
Block_(0,_27)
Block_(0,_28)
Block_(0,_29)
Block_(0,_3)
Block_(0,_4)
Block_(0,_5)
Block_(0,_6)
Block_(0,_7)
Block_(0,_8)
Block_(0,_9)
Block_(1,_0)
Block_(1,_1)
Block_(1,_10)
Block_(1,_11)
Block_(1,_12)
Block_(1,_13)
Block_(1,_14)
Block_(1,_15)
Block_(1,_16)
Block_(1,_17)
Block_(1,_18)
Block_(1,_19)
Block_(1,_2)
Block_(1,_20)
Block_(1,_21)
Block_(1,_22)
Block_(1,_23)
Block_(1,_24)
Block_(1,_25)
Block_(1,_26)
Block_(1,_27)
Block_(1,_28)
Block_(1,_29)
Block_(1,_3)
Block_(1,_4)
Block_(1,_5)
Block_(1,_6)
Block_(1,_7)
Block_(1,_8)
Block_(1,_9)
Block_(2,_0)
Block_(2,_1)
Block_(2,_10)
Block_(2,_11)
Block_(2,_12)
Block_(2,_13)
Block_(2,_14)
Block_(2,_15)
Block_(2,_16)
Block_(2,_17)
Block_(2,_18)
Block_(2,_19)
Block_(2,_2)
Block_(2,_20)
Block_(2,_21)
Block_(2,_22)
Block_(2,_23)
Block_(2,_24)
Block_(2,_25)
Block_(2,_26)
Block_(2,_27)
Block_(2,_28)
Block_(2,_29)
Block_(2,_3)
Block_(2,_4)
Block_(2,_5)
Block_(2,_6)
Block_(2,_7)
Block_(2,_8)
Block_(2,_9)
Block_(3,_0)
Block_(3,_1)
Block_(3,_10)
Block_(3,_11)
Block_(3,_12)
Block_(3,_13)
Block_(3,_14)
Block_(3,_15)
Block_(3,_16)
Block_(3,_17)
Block_(3,_18)
Block_(3,_19)
Block_(3,_2)
Block_(3,_20)
Block_(3,_21)
Block_(3,_22)
Block_(3,_23)
Block_(3,_24)
Block_(3,_25)
Block_(3,_26)
Block_(3,_27)
Block_(3,_28)
Block_(3,_29)
Block_(3,_3)
Block_(3,_4)
Block_(3,_5)
Block_(3,_6)
Block_(3,_7)
Block_(3,_8)
Block_(3,_9)
Block_(4,_0)
Block_(4,_1)
Block_(4,_10)
Block_(4,_11)
Block_(4,_12)
Block_(4,_13)
Block_(4,_14)
Block_(4,_15)
Block_(4,_16)
Block_(4,_17)
Block_(4,_18)
Block_(4,_19)
Block_(4,_2)
Block_(4,_20)
Block_(4,_21)
Block_(4,_22)
Block_(4,_23)
Block_(4,_24)
Block_(4,_25)
Block_(4,_26)
Block_(4,_27)
Block_(4,_28)
Block_(4,_29)
Block_(4,_3)
Block_(4,_4)
Block_(4,_5)
Block_(4,_6)
Block_(4,_7)
Block_(4,_8)
Block_(4,_9)
Block_(5,_0)
Block_(5,_1)
Block_(5,_10)
Block_(5,_11)
Block_(5,_12)
Block_(5,_13)
Block_(5,_14)
Block_(5,_15)
Block_(5,_16)
Block_(5,_17)
Block_(5,_18)
Block_(5,_19)
Block_(5,_2)
Block_(5,_20)
Block_(5,_21)
Block_(5,_22)
Block_(5,_23)
Block_(5,_24)
Block_(5,_25)
Block_(5,_26)
Block_(5,_27)
Block_(5,_28)
Block_(5,_29)
Block_(5,_3)
Block_(5,_4)
Block_(5,_5)
Block_(5,_6)
Block_(5,_7)
Block_(5,_8)
Block_(5,_9)
Block_(6,_0)
Block_(6,_1)
Block_(6,_10)
Block_(6,_11)
Block_(6,_12)
Block_(6,_13)
Block_(6,_14)
Block_(6,_15)
Block_(6,_16)
Block_(6,_17)
Block_(6,_18)
Block_(6,_19)
Block_(6,_2)
Block_(6,_20)
Block_(6,_21)
Block_(6,_22)
Block_(6,_23)
Block_(6,_24)
Block_(6,_25)
Block_(6,_26)
Block_(6,_27)
Block_(6,_28)
Block_(6,_29)
Block_(6,_3)
Block_(6,_4)
Block_(6,_5)
Block_(6,_6)
Block_(6,_7)
Block_(6,_8)
Block_(6,_9)
Block_(7,_0)
Block_(7,_1)
Block_(7,_10)
Block_(7,_11)
Block_(7,_12)
Block_(7,_13)
Block_(7,_14)
Block_(7,_15)
Block_(7,_16)
Block_(7,_17)
Block_(7,_18)
Block_(7,_19)
Block_(7,_2)
Block_(7,_20)
Block_(7,_21)
Block_(7,_22)
Block_(7,_23)
Block_(7,_24)
Block_(7,_25)
Block_(7,_26)
Block_(7,_27)
Block_(7,_28)
Block_(7,_29)
Block_(7,_3)
Block_(7,_4)
Block_(7,_5)
Block_(7,_6)
Block_(7,_7)
Block_(7,_8)
Block_(7,_9)
Block_(8,_0)
Block_(8,_1)
Block_(8,_10)
Block_(8,_11)
Block_(8,_12)
Block_(8,_13)
Block_(8,_14)
Block_(8,_15)
Block_(8,_16)
Block_(8,_17)
Block_(8,_18)
Block_(8,_19)
Block_(8,_2)
Block_(8,_20)
Block_(8,_21)
Block_(8,_22)
Block_(8,_23)
Block_(8,_24)
Block_(8,_25)
Block_(8,_26)
Block_(8,_27)
Block_(8,_28)
Block_(8,_29)
Block_(8,_3)
Block_(8,_4)
Block_(8,_5)
Block_(8,_6)
Block_(8,_7)
Block_(8,_8)
Block_(8,_9)
End
